(set-info :smt-lib-version 2.6)
(set-logic QF_NRA)
(set-info :source |
Generated by a component of the Ultimate program analysis framework [1] 
that implements a constraint-based synthesis of invariants [2].

This SMT script belongs to a set of SMT scripts that was generated by 
applying Ultimate to benchmarks [3] from the SV-COMP 2017 [4,5].

This script might _not_ contain all SMT commands that are used by 
Ultimate . In order to satisfy the restrictions of
the SMT-COMP we have to drop e.g., the commands for getting
values (resp. models), unsatisfiable cores and interpolants.

2017-05-01, Matthias Heizmann (heizmann@informatik.uni-freiburg.de)


[1] https://ultimate.informatik.uni-freiburg.de/
[2] Michael Colon, Sriram Sankaranarayanan, Henny Sipma: Linear Invariant 
Generation Using Non-linear Constraint Solving. CAV 2003: 420-432
[3] https://github.com/sosy-lab/sv-benchmarks
[4] Dirk Beyer: Software Verification with Validation of Results - 
(Report on SV-COMP 2017). TACAS (2) 2017: 331-349
[5] https://sv-comp.sosy-lab.org/2017/
|)
(set-info :license "https://creativecommons.org/licenses/by/4.0/")
(set-info :category "industrial")
(set-info :status unknown)
(declare-fun lp_0_0c () Real)
(declare-fun lp_0_0_ULTIMATE.start_main_~i~4 () Real)
(declare-fun lp_0_1c () Real)
(declare-fun lp_0_1_ULTIMATE.start_main_~i~4 () Real)
(declare-fun lp_0_2c () Real)
(declare-fun lp_0_2_ULTIMATE.start_main_~i~4 () Real)
(declare-fun lp_1_3c () Real)
(declare-fun lp_1_3_ULTIMATE.start_main_~i~4 () Real)
(declare-fun lp_1_4c () Real)
(declare-fun lp_1_4_ULTIMATE.start_main_~i~4 () Real)
(declare-fun lp_1_5c () Real)
(declare-fun lp_1_5_ULTIMATE.start_main_~i~4 () Real)
(declare-fun lp_2_6c () Real)
(declare-fun lp_2_6_ULTIMATE.start_main_~i~4 () Real)
(declare-fun lp_2_7c () Real)
(declare-fun lp_2_7_ULTIMATE.start_main_~i~4 () Real)
(declare-fun lp_2_8c () Real)
(declare-fun lp_2_8_ULTIMATE.start_main_~i~4 () Real)
(declare-fun lp_3_9c () Real)
(declare-fun lp_3_9_ULTIMATE.start_main_~i~4 () Real)
(declare-fun lp_3_10c () Real)
(declare-fun lp_3_10_ULTIMATE.start_main_~i~4 () Real)
(declare-fun lp_3_11c () Real)
(declare-fun lp_3_11_ULTIMATE.start_main_~i~4 () Real)
(declare-fun motzkin_1424_0 () Real)
(declare-fun motzkin_1424_1 () Real)
(declare-fun motzkin_1424_2 () Real)
(declare-fun motzkin_1425_0 () Real)
(declare-fun motzkin_1425_1 () Real)
(declare-fun motzkin_1425_2 () Real)
(declare-fun motzkin_1426_0 () Real)
(declare-fun motzkin_1426_1 () Real)
(declare-fun motzkin_1426_2 () Real)
(assert (and (>= motzkin_1424_0 0.0) (>= motzkin_1424_1 0.0) (>= motzkin_1424_2 0.0) (= (+ motzkin_1424_0 (* motzkin_1424_1 (- 1.0)) (* motzkin_1424_2 (+ (* (- 1.0) lp_0_0_ULTIMATE.start_main_~i~4) 0.0))) 0.0) (<= (* motzkin_1424_2 (+ (* (- 1.0) lp_0_0c) 0.0)) 0.0) (or (< 0.0 0.0) (> motzkin_1424_2 0.0)) (>= motzkin_1425_0 0.0) (>= motzkin_1425_1 0.0) (>= motzkin_1425_2 0.0) (= (+ motzkin_1425_0 (* motzkin_1425_1 (- 1.0)) (* motzkin_1425_2 (+ (* (- 1.0) lp_0_1_ULTIMATE.start_main_~i~4) 0.0))) 0.0) (<= (* motzkin_1425_2 (+ (* (- 1.0) lp_0_1c) 0.0)) 0.0) (or (< 0.0 0.0) (> motzkin_1425_2 0.0)) (>= motzkin_1426_0 0.0) (>= motzkin_1426_1 0.0) (>= motzkin_1426_2 0.0) (= (+ motzkin_1426_0 (* motzkin_1426_1 (- 1.0)) (* motzkin_1426_2 (+ (* (- 1.0) lp_0_2_ULTIMATE.start_main_~i~4) 0.0))) 0.0) (<= (* motzkin_1426_2 (+ (* (- 1.0) lp_0_2c) 0.0)) 0.0) (or (< 0.0 0.0) (> motzkin_1426_2 0.0))))
(declare-fun motzkin_1427_0 () Real)
(declare-fun motzkin_1427_1 () Real)
(declare-fun motzkin_1427_2 () Real)
(declare-fun motzkin_1427_3 () Real)
(declare-fun motzkin_1427_4 () Real)
(declare-fun motzkin_1427_5 () Real)
(declare-fun motzkin_1427_6 () Real)
(declare-fun motzkin_1428_0 () Real)
(declare-fun motzkin_1428_1 () Real)
(declare-fun motzkin_1428_2 () Real)
(declare-fun motzkin_1428_3 () Real)
(declare-fun motzkin_1428_4 () Real)
(declare-fun motzkin_1428_5 () Real)
(declare-fun motzkin_1428_6 () Real)
(declare-fun motzkin_1429_0 () Real)
(declare-fun motzkin_1429_1 () Real)
(declare-fun motzkin_1429_2 () Real)
(declare-fun motzkin_1429_3 () Real)
(declare-fun motzkin_1429_4 () Real)
(declare-fun motzkin_1429_5 () Real)
(declare-fun motzkin_1429_6 () Real)
(assert (and (>= motzkin_1427_0 0.0) (>= motzkin_1427_1 0.0) (>= motzkin_1427_2 0.0) (>= motzkin_1427_3 0.0) (>= motzkin_1427_4 0.0) (>= motzkin_1427_5 0.0) (>= motzkin_1427_6 0.0) (= (+ (* motzkin_1427_0 (- 1.0)) motzkin_1427_1 (* motzkin_1427_3 (+ (* (- 1.0) lp_1_3_ULTIMATE.start_main_~i~4) 0.0))) 0.0) (= (+ motzkin_1427_2 (* motzkin_1427_4 (+ (* 1.0 lp_0_0_ULTIMATE.start_main_~i~4) 0.0)) (* motzkin_1427_5 (+ (* 1.0 lp_0_1_ULTIMATE.start_main_~i~4) 0.0)) (* motzkin_1427_6 (+ (* 1.0 lp_0_2_ULTIMATE.start_main_~i~4) 0.0))) 0.0) (<= (+ (* motzkin_1427_2 (- 100000.0)) (* motzkin_1427_3 (+ (* (- 1.0) lp_1_3c) 0.0)) (* motzkin_1427_4 (+ (* 1.0 lp_0_0c) 0.0)) (* motzkin_1427_5 (+ (* 1.0 lp_0_1c) 0.0)) (* motzkin_1427_6 (+ (* 1.0 lp_0_2c) 0.0))) 0.0) (or (< (+ (* motzkin_1427_2 (- 100000.0)) (* motzkin_1427_4 (+ (* 1.0 lp_0_0c) 0.0)) (* motzkin_1427_5 (+ (* 1.0 lp_0_1c) 0.0)) (* motzkin_1427_6 (+ (* 1.0 lp_0_2c) 0.0))) 0.0) (> motzkin_1427_3 0.0)) (>= motzkin_1428_0 0.0) (>= motzkin_1428_1 0.0) (>= motzkin_1428_2 0.0) (>= motzkin_1428_3 0.0) (>= motzkin_1428_4 0.0) (>= motzkin_1428_5 0.0) (>= motzkin_1428_6 0.0) (= (+ (* motzkin_1428_0 (- 1.0)) motzkin_1428_1 (* motzkin_1428_3 (+ (* (- 1.0) lp_1_4_ULTIMATE.start_main_~i~4) 0.0))) 0.0) (= (+ motzkin_1428_2 (* motzkin_1428_4 (+ (* 1.0 lp_0_0_ULTIMATE.start_main_~i~4) 0.0)) (* motzkin_1428_5 (+ (* 1.0 lp_0_1_ULTIMATE.start_main_~i~4) 0.0)) (* motzkin_1428_6 (+ (* 1.0 lp_0_2_ULTIMATE.start_main_~i~4) 0.0))) 0.0) (<= (+ (* motzkin_1428_2 (- 100000.0)) (* motzkin_1428_3 (+ (* (- 1.0) lp_1_4c) 0.0)) (* motzkin_1428_4 (+ (* 1.0 lp_0_0c) 0.0)) (* motzkin_1428_5 (+ (* 1.0 lp_0_1c) 0.0)) (* motzkin_1428_6 (+ (* 1.0 lp_0_2c) 0.0))) 0.0) (or (< (+ (* motzkin_1428_2 (- 100000.0)) (* motzkin_1428_4 (+ (* 1.0 lp_0_0c) 0.0)) (* motzkin_1428_5 (+ (* 1.0 lp_0_1c) 0.0)) (* motzkin_1428_6 (+ (* 1.0 lp_0_2c) 0.0))) 0.0) (> motzkin_1428_3 0.0)) (>= motzkin_1429_0 0.0) (>= motzkin_1429_1 0.0) (>= motzkin_1429_2 0.0) (>= motzkin_1429_3 0.0) (>= motzkin_1429_4 0.0) (>= motzkin_1429_5 0.0) (>= motzkin_1429_6 0.0) (= (+ (* motzkin_1429_0 (- 1.0)) motzkin_1429_1 (* motzkin_1429_3 (+ (* (- 1.0) lp_1_5_ULTIMATE.start_main_~i~4) 0.0))) 0.0) (= (+ motzkin_1429_2 (* motzkin_1429_4 (+ (* 1.0 lp_0_0_ULTIMATE.start_main_~i~4) 0.0)) (* motzkin_1429_5 (+ (* 1.0 lp_0_1_ULTIMATE.start_main_~i~4) 0.0)) (* motzkin_1429_6 (+ (* 1.0 lp_0_2_ULTIMATE.start_main_~i~4) 0.0))) 0.0) (<= (+ (* motzkin_1429_2 (- 100000.0)) (* motzkin_1429_3 (+ (* (- 1.0) lp_1_5c) 0.0)) (* motzkin_1429_4 (+ (* 1.0 lp_0_0c) 0.0)) (* motzkin_1429_5 (+ (* 1.0 lp_0_1c) 0.0)) (* motzkin_1429_6 (+ (* 1.0 lp_0_2c) 0.0))) 0.0) (or (< (+ (* motzkin_1429_2 (- 100000.0)) (* motzkin_1429_4 (+ (* 1.0 lp_0_0c) 0.0)) (* motzkin_1429_5 (+ (* 1.0 lp_0_1c) 0.0)) (* motzkin_1429_6 (+ (* 1.0 lp_0_2c) 0.0))) 0.0) (> motzkin_1429_3 0.0))))
(declare-fun motzkin_1430_0 () Real)
(declare-fun motzkin_1430_1 () Real)
(declare-fun motzkin_1430_2 () Real)
(declare-fun motzkin_1430_3 () Real)
(declare-fun motzkin_1430_4 () Real)
(declare-fun motzkin_1430_5 () Real)
(declare-fun motzkin_1430_6 () Real)
(declare-fun motzkin_1431_0 () Real)
(declare-fun motzkin_1431_1 () Real)
(declare-fun motzkin_1431_2 () Real)
(declare-fun motzkin_1431_3 () Real)
(declare-fun motzkin_1431_4 () Real)
(declare-fun motzkin_1431_5 () Real)
(declare-fun motzkin_1431_6 () Real)
(declare-fun motzkin_1432_0 () Real)
(declare-fun motzkin_1432_1 () Real)
(declare-fun motzkin_1432_2 () Real)
(declare-fun motzkin_1432_3 () Real)
(declare-fun motzkin_1432_4 () Real)
(declare-fun motzkin_1432_5 () Real)
(declare-fun motzkin_1432_6 () Real)
(assert (and (>= motzkin_1430_0 0.0) (>= motzkin_1430_1 0.0) (>= motzkin_1430_2 0.0) (>= motzkin_1430_3 0.0) (>= motzkin_1430_4 0.0) (>= motzkin_1430_5 0.0) (>= motzkin_1430_6 0.0) (= (+ (* motzkin_1430_0 (- 1.0)) (* motzkin_1430_1 (- 1.0)) motzkin_1430_2 (* motzkin_1430_4 (+ (* 1.0 lp_0_0_ULTIMATE.start_main_~i~4) 0.0)) (* motzkin_1430_5 (+ (* 1.0 lp_0_1_ULTIMATE.start_main_~i~4) 0.0)) (* motzkin_1430_6 (+ (* 1.0 lp_0_2_ULTIMATE.start_main_~i~4) 0.0))) 0.0) (= (+ motzkin_1430_1 (* motzkin_1430_2 (- 1.0)) (* motzkin_1430_3 (+ (* (- 1.0) lp_0_0_ULTIMATE.start_main_~i~4) 0.0))) 0.0) (<= (+ (* motzkin_1430_0 99999.0) (* motzkin_1430_1 (- 1.0)) motzkin_1430_2 (* motzkin_1430_3 (+ (* (- 1.0) lp_0_0c) 0.0)) (* motzkin_1430_4 (+ (* 1.0 lp_0_0c) 0.0)) (* motzkin_1430_5 (+ (* 1.0 lp_0_1c) 0.0)) (* motzkin_1430_6 (+ (* 1.0 lp_0_2c) 0.0))) 0.0) (or (< (+ (* motzkin_1430_0 99999.0) (* motzkin_1430_1 (- 1.0)) motzkin_1430_2 (* motzkin_1430_4 (+ (* 1.0 lp_0_0c) 0.0)) (* motzkin_1430_5 (+ (* 1.0 lp_0_1c) 0.0)) (* motzkin_1430_6 (+ (* 1.0 lp_0_2c) 0.0))) 0.0) (> motzkin_1430_3 0.0)) (>= motzkin_1431_0 0.0) (>= motzkin_1431_1 0.0) (>= motzkin_1431_2 0.0) (>= motzkin_1431_3 0.0) (>= motzkin_1431_4 0.0) (>= motzkin_1431_5 0.0) (>= motzkin_1431_6 0.0) (= (+ (* motzkin_1431_0 (- 1.0)) (* motzkin_1431_1 (- 1.0)) motzkin_1431_2 (* motzkin_1431_4 (+ (* 1.0 lp_0_0_ULTIMATE.start_main_~i~4) 0.0)) (* motzkin_1431_5 (+ (* 1.0 lp_0_1_ULTIMATE.start_main_~i~4) 0.0)) (* motzkin_1431_6 (+ (* 1.0 lp_0_2_ULTIMATE.start_main_~i~4) 0.0))) 0.0) (= (+ motzkin_1431_1 (* motzkin_1431_2 (- 1.0)) (* motzkin_1431_3 (+ (* (- 1.0) lp_0_1_ULTIMATE.start_main_~i~4) 0.0))) 0.0) (<= (+ (* motzkin_1431_0 99999.0) (* motzkin_1431_1 (- 1.0)) motzkin_1431_2 (* motzkin_1431_3 (+ (* (- 1.0) lp_0_1c) 0.0)) (* motzkin_1431_4 (+ (* 1.0 lp_0_0c) 0.0)) (* motzkin_1431_5 (+ (* 1.0 lp_0_1c) 0.0)) (* motzkin_1431_6 (+ (* 1.0 lp_0_2c) 0.0))) 0.0) (or (< (+ (* motzkin_1431_0 99999.0) (* motzkin_1431_1 (- 1.0)) motzkin_1431_2 (* motzkin_1431_4 (+ (* 1.0 lp_0_0c) 0.0)) (* motzkin_1431_5 (+ (* 1.0 lp_0_1c) 0.0)) (* motzkin_1431_6 (+ (* 1.0 lp_0_2c) 0.0))) 0.0) (> motzkin_1431_3 0.0)) (>= motzkin_1432_0 0.0) (>= motzkin_1432_1 0.0) (>= motzkin_1432_2 0.0) (>= motzkin_1432_3 0.0) (>= motzkin_1432_4 0.0) (>= motzkin_1432_5 0.0) (>= motzkin_1432_6 0.0) (= (+ (* motzkin_1432_0 (- 1.0)) (* motzkin_1432_1 (- 1.0)) motzkin_1432_2 (* motzkin_1432_4 (+ (* 1.0 lp_0_0_ULTIMATE.start_main_~i~4) 0.0)) (* motzkin_1432_5 (+ (* 1.0 lp_0_1_ULTIMATE.start_main_~i~4) 0.0)) (* motzkin_1432_6 (+ (* 1.0 lp_0_2_ULTIMATE.start_main_~i~4) 0.0))) 0.0) (= (+ motzkin_1432_1 (* motzkin_1432_2 (- 1.0)) (* motzkin_1432_3 (+ (* (- 1.0) lp_0_2_ULTIMATE.start_main_~i~4) 0.0))) 0.0) (<= (+ (* motzkin_1432_0 99999.0) (* motzkin_1432_1 (- 1.0)) motzkin_1432_2 (* motzkin_1432_3 (+ (* (- 1.0) lp_0_2c) 0.0)) (* motzkin_1432_4 (+ (* 1.0 lp_0_0c) 0.0)) (* motzkin_1432_5 (+ (* 1.0 lp_0_1c) 0.0)) (* motzkin_1432_6 (+ (* 1.0 lp_0_2c) 0.0))) 0.0) (or (< (+ (* motzkin_1432_0 99999.0) (* motzkin_1432_1 (- 1.0)) motzkin_1432_2 (* motzkin_1432_4 (+ (* 1.0 lp_0_0c) 0.0)) (* motzkin_1432_5 (+ (* 1.0 lp_0_1c) 0.0)) (* motzkin_1432_6 (+ (* 1.0 lp_0_2c) 0.0))) 0.0) (> motzkin_1432_3 0.0))))
(declare-fun motzkin_1433_0 () Real)
(declare-fun motzkin_1433_1 () Real)
(declare-fun motzkin_1433_2 () Real)
(declare-fun motzkin_1433_3 () Real)
(declare-fun motzkin_1433_4 () Real)
(declare-fun motzkin_1433_5 () Real)
(declare-fun motzkin_1433_6 () Real)
(declare-fun motzkin_1434_0 () Real)
(declare-fun motzkin_1434_1 () Real)
(declare-fun motzkin_1434_2 () Real)
(declare-fun motzkin_1434_3 () Real)
(declare-fun motzkin_1434_4 () Real)
(declare-fun motzkin_1434_5 () Real)
(declare-fun motzkin_1434_6 () Real)
(declare-fun motzkin_1435_0 () Real)
(declare-fun motzkin_1435_1 () Real)
(declare-fun motzkin_1435_2 () Real)
(declare-fun motzkin_1435_3 () Real)
(declare-fun motzkin_1435_4 () Real)
(declare-fun motzkin_1435_5 () Real)
(declare-fun motzkin_1435_6 () Real)
(assert (and (>= motzkin_1433_0 0.0) (>= motzkin_1433_1 0.0) (>= motzkin_1433_2 0.0) (>= motzkin_1433_3 0.0) (>= motzkin_1433_4 0.0) (>= motzkin_1433_5 0.0) (>= motzkin_1433_6 0.0) (= (+ (* motzkin_1433_0 (- 1.0)) motzkin_1433_1 (* motzkin_1433_2 (- 1.0)) (* motzkin_1433_4 (+ (* 1.0 lp_1_3_ULTIMATE.start_main_~i~4) 0.0)) (* motzkin_1433_5 (+ (* 1.0 lp_1_4_ULTIMATE.start_main_~i~4) 0.0)) (* motzkin_1433_6 (+ (* 1.0 lp_1_5_ULTIMATE.start_main_~i~4) 0.0))) 0.0) (= (+ (* motzkin_1433_1 (- 1.0)) motzkin_1433_2 (* motzkin_1433_3 (+ (* (- 1.0) lp_1_3_ULTIMATE.start_main_~i~4) 0.0))) 0.0) (<= (+ (* motzkin_1433_0 99999.0) motzkin_1433_1 (* motzkin_1433_2 (- 1.0)) (* motzkin_1433_3 (+ (* (- 1.0) lp_1_3c) 0.0)) (* motzkin_1433_4 (+ (* 1.0 lp_1_3c) 0.0)) (* motzkin_1433_5 (+ (* 1.0 lp_1_4c) 0.0)) (* motzkin_1433_6 (+ (* 1.0 lp_1_5c) 0.0))) 0.0) (or (< (+ (* motzkin_1433_0 99999.0) motzkin_1433_1 (* motzkin_1433_2 (- 1.0)) (* motzkin_1433_4 (+ (* 1.0 lp_1_3c) 0.0)) (* motzkin_1433_5 (+ (* 1.0 lp_1_4c) 0.0)) (* motzkin_1433_6 (+ (* 1.0 lp_1_5c) 0.0))) 0.0) (> motzkin_1433_3 0.0)) (>= motzkin_1434_0 0.0) (>= motzkin_1434_1 0.0) (>= motzkin_1434_2 0.0) (>= motzkin_1434_3 0.0) (>= motzkin_1434_4 0.0) (>= motzkin_1434_5 0.0) (>= motzkin_1434_6 0.0) (= (+ (* motzkin_1434_0 (- 1.0)) motzkin_1434_1 (* motzkin_1434_2 (- 1.0)) (* motzkin_1434_4 (+ (* 1.0 lp_1_3_ULTIMATE.start_main_~i~4) 0.0)) (* motzkin_1434_5 (+ (* 1.0 lp_1_4_ULTIMATE.start_main_~i~4) 0.0)) (* motzkin_1434_6 (+ (* 1.0 lp_1_5_ULTIMATE.start_main_~i~4) 0.0))) 0.0) (= (+ (* motzkin_1434_1 (- 1.0)) motzkin_1434_2 (* motzkin_1434_3 (+ (* (- 1.0) lp_1_4_ULTIMATE.start_main_~i~4) 0.0))) 0.0) (<= (+ (* motzkin_1434_0 99999.0) motzkin_1434_1 (* motzkin_1434_2 (- 1.0)) (* motzkin_1434_3 (+ (* (- 1.0) lp_1_4c) 0.0)) (* motzkin_1434_4 (+ (* 1.0 lp_1_3c) 0.0)) (* motzkin_1434_5 (+ (* 1.0 lp_1_4c) 0.0)) (* motzkin_1434_6 (+ (* 1.0 lp_1_5c) 0.0))) 0.0) (or (< (+ (* motzkin_1434_0 99999.0) motzkin_1434_1 (* motzkin_1434_2 (- 1.0)) (* motzkin_1434_4 (+ (* 1.0 lp_1_3c) 0.0)) (* motzkin_1434_5 (+ (* 1.0 lp_1_4c) 0.0)) (* motzkin_1434_6 (+ (* 1.0 lp_1_5c) 0.0))) 0.0) (> motzkin_1434_3 0.0)) (>= motzkin_1435_0 0.0) (>= motzkin_1435_1 0.0) (>= motzkin_1435_2 0.0) (>= motzkin_1435_3 0.0) (>= motzkin_1435_4 0.0) (>= motzkin_1435_5 0.0) (>= motzkin_1435_6 0.0) (= (+ (* motzkin_1435_0 (- 1.0)) motzkin_1435_1 (* motzkin_1435_2 (- 1.0)) (* motzkin_1435_4 (+ (* 1.0 lp_1_3_ULTIMATE.start_main_~i~4) 0.0)) (* motzkin_1435_5 (+ (* 1.0 lp_1_4_ULTIMATE.start_main_~i~4) 0.0)) (* motzkin_1435_6 (+ (* 1.0 lp_1_5_ULTIMATE.start_main_~i~4) 0.0))) 0.0) (= (+ (* motzkin_1435_1 (- 1.0)) motzkin_1435_2 (* motzkin_1435_3 (+ (* (- 1.0) lp_1_5_ULTIMATE.start_main_~i~4) 0.0))) 0.0) (<= (+ (* motzkin_1435_0 99999.0) motzkin_1435_1 (* motzkin_1435_2 (- 1.0)) (* motzkin_1435_3 (+ (* (- 1.0) lp_1_5c) 0.0)) (* motzkin_1435_4 (+ (* 1.0 lp_1_3c) 0.0)) (* motzkin_1435_5 (+ (* 1.0 lp_1_4c) 0.0)) (* motzkin_1435_6 (+ (* 1.0 lp_1_5c) 0.0))) 0.0) (or (< (+ (* motzkin_1435_0 99999.0) motzkin_1435_1 (* motzkin_1435_2 (- 1.0)) (* motzkin_1435_4 (+ (* 1.0 lp_1_3c) 0.0)) (* motzkin_1435_5 (+ (* 1.0 lp_1_4c) 0.0)) (* motzkin_1435_6 (+ (* 1.0 lp_1_5c) 0.0))) 0.0) (> motzkin_1435_3 0.0))))
(declare-fun motzkin_1436_0 () Real)
(declare-fun motzkin_1436_1 () Real)
(declare-fun motzkin_1436_2 () Real)
(declare-fun motzkin_1436_3 () Real)
(declare-fun motzkin_1436_4 () Real)
(declare-fun motzkin_1436_5 () Real)
(declare-fun motzkin_1436_6 () Real)
(declare-fun motzkin_1437_0 () Real)
(declare-fun motzkin_1437_1 () Real)
(declare-fun motzkin_1437_2 () Real)
(declare-fun motzkin_1437_3 () Real)
(declare-fun motzkin_1437_4 () Real)
(declare-fun motzkin_1437_5 () Real)
(declare-fun motzkin_1437_6 () Real)
(declare-fun motzkin_1438_0 () Real)
(declare-fun motzkin_1438_1 () Real)
(declare-fun motzkin_1438_2 () Real)
(declare-fun motzkin_1438_3 () Real)
(declare-fun motzkin_1438_4 () Real)
(declare-fun motzkin_1438_5 () Real)
(declare-fun motzkin_1438_6 () Real)
(assert (and (>= motzkin_1436_0 0.0) (>= motzkin_1436_1 0.0) (>= motzkin_1436_2 0.0) (>= motzkin_1436_3 0.0) (>= motzkin_1436_4 0.0) (>= motzkin_1436_5 0.0) (>= motzkin_1436_6 0.0) (= (+ (* motzkin_1436_0 (- 1.0)) motzkin_1436_2 (* motzkin_1436_3 (+ (* (- 1.0) lp_2_6_ULTIMATE.start_main_~i~4) 0.0))) 0.0) (= (+ motzkin_1436_1 (* motzkin_1436_4 (+ (* 1.0 lp_1_3_ULTIMATE.start_main_~i~4) 0.0)) (* motzkin_1436_5 (+ (* 1.0 lp_1_4_ULTIMATE.start_main_~i~4) 0.0)) (* motzkin_1436_6 (+ (* 1.0 lp_1_5_ULTIMATE.start_main_~i~4) 0.0))) 0.0) (<= (+ (* motzkin_1436_1 (- 100000.0)) (* motzkin_1436_3 (+ (* (- 1.0) lp_2_6c) 0.0)) (* motzkin_1436_4 (+ (* 1.0 lp_1_3c) 0.0)) (* motzkin_1436_5 (+ (* 1.0 lp_1_4c) 0.0)) (* motzkin_1436_6 (+ (* 1.0 lp_1_5c) 0.0))) 0.0) (or (< (+ (* motzkin_1436_1 (- 100000.0)) (* motzkin_1436_4 (+ (* 1.0 lp_1_3c) 0.0)) (* motzkin_1436_5 (+ (* 1.0 lp_1_4c) 0.0)) (* motzkin_1436_6 (+ (* 1.0 lp_1_5c) 0.0))) 0.0) (> motzkin_1436_3 0.0)) (>= motzkin_1437_0 0.0) (>= motzkin_1437_1 0.0) (>= motzkin_1437_2 0.0) (>= motzkin_1437_3 0.0) (>= motzkin_1437_4 0.0) (>= motzkin_1437_5 0.0) (>= motzkin_1437_6 0.0) (= (+ (* motzkin_1437_0 (- 1.0)) motzkin_1437_2 (* motzkin_1437_3 (+ (* (- 1.0) lp_2_7_ULTIMATE.start_main_~i~4) 0.0))) 0.0) (= (+ motzkin_1437_1 (* motzkin_1437_4 (+ (* 1.0 lp_1_3_ULTIMATE.start_main_~i~4) 0.0)) (* motzkin_1437_5 (+ (* 1.0 lp_1_4_ULTIMATE.start_main_~i~4) 0.0)) (* motzkin_1437_6 (+ (* 1.0 lp_1_5_ULTIMATE.start_main_~i~4) 0.0))) 0.0) (<= (+ (* motzkin_1437_1 (- 100000.0)) (* motzkin_1437_3 (+ (* (- 1.0) lp_2_7c) 0.0)) (* motzkin_1437_4 (+ (* 1.0 lp_1_3c) 0.0)) (* motzkin_1437_5 (+ (* 1.0 lp_1_4c) 0.0)) (* motzkin_1437_6 (+ (* 1.0 lp_1_5c) 0.0))) 0.0) (or (< (+ (* motzkin_1437_1 (- 100000.0)) (* motzkin_1437_4 (+ (* 1.0 lp_1_3c) 0.0)) (* motzkin_1437_5 (+ (* 1.0 lp_1_4c) 0.0)) (* motzkin_1437_6 (+ (* 1.0 lp_1_5c) 0.0))) 0.0) (> motzkin_1437_3 0.0)) (>= motzkin_1438_0 0.0) (>= motzkin_1438_1 0.0) (>= motzkin_1438_2 0.0) (>= motzkin_1438_3 0.0) (>= motzkin_1438_4 0.0) (>= motzkin_1438_5 0.0) (>= motzkin_1438_6 0.0) (= (+ (* motzkin_1438_0 (- 1.0)) motzkin_1438_2 (* motzkin_1438_3 (+ (* (- 1.0) lp_2_8_ULTIMATE.start_main_~i~4) 0.0))) 0.0) (= (+ motzkin_1438_1 (* motzkin_1438_4 (+ (* 1.0 lp_1_3_ULTIMATE.start_main_~i~4) 0.0)) (* motzkin_1438_5 (+ (* 1.0 lp_1_4_ULTIMATE.start_main_~i~4) 0.0)) (* motzkin_1438_6 (+ (* 1.0 lp_1_5_ULTIMATE.start_main_~i~4) 0.0))) 0.0) (<= (+ (* motzkin_1438_1 (- 100000.0)) (* motzkin_1438_3 (+ (* (- 1.0) lp_2_8c) 0.0)) (* motzkin_1438_4 (+ (* 1.0 lp_1_3c) 0.0)) (* motzkin_1438_5 (+ (* 1.0 lp_1_4c) 0.0)) (* motzkin_1438_6 (+ (* 1.0 lp_1_5c) 0.0))) 0.0) (or (< (+ (* motzkin_1438_1 (- 100000.0)) (* motzkin_1438_4 (+ (* 1.0 lp_1_3c) 0.0)) (* motzkin_1438_5 (+ (* 1.0 lp_1_4c) 0.0)) (* motzkin_1438_6 (+ (* 1.0 lp_1_5c) 0.0))) 0.0) (> motzkin_1438_3 0.0))))
(declare-fun motzkin_1439_0 () Real)
(declare-fun motzkin_1439_1 () Real)
(declare-fun motzkin_1439_2 () Real)
(declare-fun motzkin_1439_3 () Real)
(declare-fun motzkin_1439_4 () Real)
(declare-fun motzkin_1439_5 () Real)
(declare-fun motzkin_1439_6 () Real)
(declare-fun motzkin_1440_0 () Real)
(declare-fun motzkin_1440_1 () Real)
(declare-fun motzkin_1440_2 () Real)
(declare-fun motzkin_1440_3 () Real)
(declare-fun motzkin_1440_4 () Real)
(declare-fun motzkin_1440_5 () Real)
(declare-fun motzkin_1440_6 () Real)
(declare-fun motzkin_1441_0 () Real)
(declare-fun motzkin_1441_1 () Real)
(declare-fun motzkin_1441_2 () Real)
(declare-fun motzkin_1441_3 () Real)
(declare-fun motzkin_1441_4 () Real)
(declare-fun motzkin_1441_5 () Real)
(declare-fun motzkin_1441_6 () Real)
(assert (and (>= motzkin_1439_0 0.0) (>= motzkin_1439_1 0.0) (>= motzkin_1439_2 0.0) (>= motzkin_1439_3 0.0) (>= motzkin_1439_4 0.0) (>= motzkin_1439_5 0.0) (>= motzkin_1439_6 0.0) (= (+ motzkin_1439_0 (* motzkin_1439_1 (- 1.0)) (* motzkin_1439_3 (+ (* (- 1.0) lp_2_6_ULTIMATE.start_main_~i~4) 0.0))) 0.0) (= (+ (* motzkin_1439_0 (- 1.0)) motzkin_1439_1 (* motzkin_1439_2 (- 1.0)) (* motzkin_1439_4 (+ (* 1.0 lp_2_6_ULTIMATE.start_main_~i~4) 0.0)) (* motzkin_1439_5 (+ (* 1.0 lp_2_7_ULTIMATE.start_main_~i~4) 0.0)) (* motzkin_1439_6 (+ (* 1.0 lp_2_8_ULTIMATE.start_main_~i~4) 0.0))) 0.0) (<= (+ (* motzkin_1439_0 (- 1.0)) motzkin_1439_1 (* motzkin_1439_2 99999.0) (* motzkin_1439_3 (+ (* (- 1.0) lp_2_6c) 0.0)) (* motzkin_1439_4 (+ (* 1.0 lp_2_6c) 0.0)) (* motzkin_1439_5 (+ (* 1.0 lp_2_7c) 0.0)) (* motzkin_1439_6 (+ (* 1.0 lp_2_8c) 0.0))) 0.0) (or (< (+ (* motzkin_1439_0 (- 1.0)) motzkin_1439_1 (* motzkin_1439_2 99999.0) (* motzkin_1439_4 (+ (* 1.0 lp_2_6c) 0.0)) (* motzkin_1439_5 (+ (* 1.0 lp_2_7c) 0.0)) (* motzkin_1439_6 (+ (* 1.0 lp_2_8c) 0.0))) 0.0) (> motzkin_1439_3 0.0)) (>= motzkin_1440_0 0.0) (>= motzkin_1440_1 0.0) (>= motzkin_1440_2 0.0) (>= motzkin_1440_3 0.0) (>= motzkin_1440_4 0.0) (>= motzkin_1440_5 0.0) (>= motzkin_1440_6 0.0) (= (+ motzkin_1440_0 (* motzkin_1440_1 (- 1.0)) (* motzkin_1440_3 (+ (* (- 1.0) lp_2_7_ULTIMATE.start_main_~i~4) 0.0))) 0.0) (= (+ (* motzkin_1440_0 (- 1.0)) motzkin_1440_1 (* motzkin_1440_2 (- 1.0)) (* motzkin_1440_4 (+ (* 1.0 lp_2_6_ULTIMATE.start_main_~i~4) 0.0)) (* motzkin_1440_5 (+ (* 1.0 lp_2_7_ULTIMATE.start_main_~i~4) 0.0)) (* motzkin_1440_6 (+ (* 1.0 lp_2_8_ULTIMATE.start_main_~i~4) 0.0))) 0.0) (<= (+ (* motzkin_1440_0 (- 1.0)) motzkin_1440_1 (* motzkin_1440_2 99999.0) (* motzkin_1440_3 (+ (* (- 1.0) lp_2_7c) 0.0)) (* motzkin_1440_4 (+ (* 1.0 lp_2_6c) 0.0)) (* motzkin_1440_5 (+ (* 1.0 lp_2_7c) 0.0)) (* motzkin_1440_6 (+ (* 1.0 lp_2_8c) 0.0))) 0.0) (or (< (+ (* motzkin_1440_0 (- 1.0)) motzkin_1440_1 (* motzkin_1440_2 99999.0) (* motzkin_1440_4 (+ (* 1.0 lp_2_6c) 0.0)) (* motzkin_1440_5 (+ (* 1.0 lp_2_7c) 0.0)) (* motzkin_1440_6 (+ (* 1.0 lp_2_8c) 0.0))) 0.0) (> motzkin_1440_3 0.0)) (>= motzkin_1441_0 0.0) (>= motzkin_1441_1 0.0) (>= motzkin_1441_2 0.0) (>= motzkin_1441_3 0.0) (>= motzkin_1441_4 0.0) (>= motzkin_1441_5 0.0) (>= motzkin_1441_6 0.0) (= (+ motzkin_1441_0 (* motzkin_1441_1 (- 1.0)) (* motzkin_1441_3 (+ (* (- 1.0) lp_2_8_ULTIMATE.start_main_~i~4) 0.0))) 0.0) (= (+ (* motzkin_1441_0 (- 1.0)) motzkin_1441_1 (* motzkin_1441_2 (- 1.0)) (* motzkin_1441_4 (+ (* 1.0 lp_2_6_ULTIMATE.start_main_~i~4) 0.0)) (* motzkin_1441_5 (+ (* 1.0 lp_2_7_ULTIMATE.start_main_~i~4) 0.0)) (* motzkin_1441_6 (+ (* 1.0 lp_2_8_ULTIMATE.start_main_~i~4) 0.0))) 0.0) (<= (+ (* motzkin_1441_0 (- 1.0)) motzkin_1441_1 (* motzkin_1441_2 99999.0) (* motzkin_1441_3 (+ (* (- 1.0) lp_2_8c) 0.0)) (* motzkin_1441_4 (+ (* 1.0 lp_2_6c) 0.0)) (* motzkin_1441_5 (+ (* 1.0 lp_2_7c) 0.0)) (* motzkin_1441_6 (+ (* 1.0 lp_2_8c) 0.0))) 0.0) (or (< (+ (* motzkin_1441_0 (- 1.0)) motzkin_1441_1 (* motzkin_1441_2 99999.0) (* motzkin_1441_4 (+ (* 1.0 lp_2_6c) 0.0)) (* motzkin_1441_5 (+ (* 1.0 lp_2_7c) 0.0)) (* motzkin_1441_6 (+ (* 1.0 lp_2_8c) 0.0))) 0.0) (> motzkin_1441_3 0.0))))
(declare-fun motzkin_1442_0 () Real)
(declare-fun motzkin_1442_1 () Real)
(declare-fun motzkin_1442_2 () Real)
(declare-fun motzkin_1442_3 () Real)
(declare-fun motzkin_1442_4 () Real)
(declare-fun motzkin_1442_5 () Real)
(declare-fun motzkin_1442_6 () Real)
(declare-fun motzkin_1443_0 () Real)
(declare-fun motzkin_1443_1 () Real)
(declare-fun motzkin_1443_2 () Real)
(declare-fun motzkin_1443_3 () Real)
(declare-fun motzkin_1443_4 () Real)
(declare-fun motzkin_1443_5 () Real)
(declare-fun motzkin_1443_6 () Real)
(declare-fun motzkin_1444_0 () Real)
(declare-fun motzkin_1444_1 () Real)
(declare-fun motzkin_1444_2 () Real)
(declare-fun motzkin_1444_3 () Real)
(declare-fun motzkin_1444_4 () Real)
(declare-fun motzkin_1444_5 () Real)
(declare-fun motzkin_1444_6 () Real)
(assert (and (>= motzkin_1442_0 0.0) (>= motzkin_1442_1 0.0) (>= motzkin_1442_2 0.0) (>= motzkin_1442_3 0.0) (>= motzkin_1442_4 0.0) (>= motzkin_1442_5 0.0) (>= motzkin_1442_6 0.0) (= (+ (* motzkin_1442_0 (- 1.0)) motzkin_1442_1 (* motzkin_1442_3 (+ (* (- 1.0) lp_3_9_ULTIMATE.start_main_~i~4) 0.0))) 0.0) (= (+ motzkin_1442_2 (* motzkin_1442_4 (+ (* 1.0 lp_2_6_ULTIMATE.start_main_~i~4) 0.0)) (* motzkin_1442_5 (+ (* 1.0 lp_2_7_ULTIMATE.start_main_~i~4) 0.0)) (* motzkin_1442_6 (+ (* 1.0 lp_2_8_ULTIMATE.start_main_~i~4) 0.0))) 0.0) (<= (+ (* motzkin_1442_2 (- 100000.0)) (* motzkin_1442_3 (+ (* (- 1.0) lp_3_9c) 0.0)) (* motzkin_1442_4 (+ (* 1.0 lp_2_6c) 0.0)) (* motzkin_1442_5 (+ (* 1.0 lp_2_7c) 0.0)) (* motzkin_1442_6 (+ (* 1.0 lp_2_8c) 0.0))) 0.0) (or (< (+ (* motzkin_1442_2 (- 100000.0)) (* motzkin_1442_4 (+ (* 1.0 lp_2_6c) 0.0)) (* motzkin_1442_5 (+ (* 1.0 lp_2_7c) 0.0)) (* motzkin_1442_6 (+ (* 1.0 lp_2_8c) 0.0))) 0.0) (> motzkin_1442_3 0.0)) (>= motzkin_1443_0 0.0) (>= motzkin_1443_1 0.0) (>= motzkin_1443_2 0.0) (>= motzkin_1443_3 0.0) (>= motzkin_1443_4 0.0) (>= motzkin_1443_5 0.0) (>= motzkin_1443_6 0.0) (= (+ (* motzkin_1443_0 (- 1.0)) motzkin_1443_1 (* motzkin_1443_3 (+ (* (- 1.0) lp_3_10_ULTIMATE.start_main_~i~4) 0.0))) 0.0) (= (+ motzkin_1443_2 (* motzkin_1443_4 (+ (* 1.0 lp_2_6_ULTIMATE.start_main_~i~4) 0.0)) (* motzkin_1443_5 (+ (* 1.0 lp_2_7_ULTIMATE.start_main_~i~4) 0.0)) (* motzkin_1443_6 (+ (* 1.0 lp_2_8_ULTIMATE.start_main_~i~4) 0.0))) 0.0) (<= (+ (* motzkin_1443_2 (- 100000.0)) (* motzkin_1443_3 (+ (* (- 1.0) lp_3_10c) 0.0)) (* motzkin_1443_4 (+ (* 1.0 lp_2_6c) 0.0)) (* motzkin_1443_5 (+ (* 1.0 lp_2_7c) 0.0)) (* motzkin_1443_6 (+ (* 1.0 lp_2_8c) 0.0))) 0.0) (or (< (+ (* motzkin_1443_2 (- 100000.0)) (* motzkin_1443_4 (+ (* 1.0 lp_2_6c) 0.0)) (* motzkin_1443_5 (+ (* 1.0 lp_2_7c) 0.0)) (* motzkin_1443_6 (+ (* 1.0 lp_2_8c) 0.0))) 0.0) (> motzkin_1443_3 0.0)) (>= motzkin_1444_0 0.0) (>= motzkin_1444_1 0.0) (>= motzkin_1444_2 0.0) (>= motzkin_1444_3 0.0) (>= motzkin_1444_4 0.0) (>= motzkin_1444_5 0.0) (>= motzkin_1444_6 0.0) (= (+ (* motzkin_1444_0 (- 1.0)) motzkin_1444_1 (* motzkin_1444_3 (+ (* (- 1.0) lp_3_11_ULTIMATE.start_main_~i~4) 0.0))) 0.0) (= (+ motzkin_1444_2 (* motzkin_1444_4 (+ (* 1.0 lp_2_6_ULTIMATE.start_main_~i~4) 0.0)) (* motzkin_1444_5 (+ (* 1.0 lp_2_7_ULTIMATE.start_main_~i~4) 0.0)) (* motzkin_1444_6 (+ (* 1.0 lp_2_8_ULTIMATE.start_main_~i~4) 0.0))) 0.0) (<= (+ (* motzkin_1444_2 (- 100000.0)) (* motzkin_1444_3 (+ (* (- 1.0) lp_3_11c) 0.0)) (* motzkin_1444_4 (+ (* 1.0 lp_2_6c) 0.0)) (* motzkin_1444_5 (+ (* 1.0 lp_2_7c) 0.0)) (* motzkin_1444_6 (+ (* 1.0 lp_2_8c) 0.0))) 0.0) (or (< (+ (* motzkin_1444_2 (- 100000.0)) (* motzkin_1444_4 (+ (* 1.0 lp_2_6c) 0.0)) (* motzkin_1444_5 (+ (* 1.0 lp_2_7c) 0.0)) (* motzkin_1444_6 (+ (* 1.0 lp_2_8c) 0.0))) 0.0) (> motzkin_1444_3 0.0))))
(declare-fun motzkin_1445_0 () Real)
(declare-fun motzkin_1445_1 () Real)
(declare-fun motzkin_1445_2 () Real)
(declare-fun motzkin_1445_3 () Real)
(declare-fun motzkin_1445_4 () Real)
(declare-fun motzkin_1445_5 () Real)
(declare-fun motzkin_1445_6 () Real)
(declare-fun motzkin_1446_0 () Real)
(declare-fun motzkin_1446_1 () Real)
(declare-fun motzkin_1446_2 () Real)
(declare-fun motzkin_1446_3 () Real)
(declare-fun motzkin_1446_4 () Real)
(declare-fun motzkin_1446_5 () Real)
(declare-fun motzkin_1446_6 () Real)
(declare-fun motzkin_1447_0 () Real)
(declare-fun motzkin_1447_1 () Real)
(declare-fun motzkin_1447_2 () Real)
(declare-fun motzkin_1447_3 () Real)
(declare-fun motzkin_1447_4 () Real)
(declare-fun motzkin_1447_5 () Real)
(declare-fun motzkin_1447_6 () Real)
(assert (and (>= motzkin_1445_0 0.0) (>= motzkin_1445_1 0.0) (>= motzkin_1445_2 0.0) (>= motzkin_1445_3 0.0) (>= motzkin_1445_4 0.0) (>= motzkin_1445_5 0.0) (>= motzkin_1445_6 0.0) (= (+ motzkin_1445_0 (* motzkin_1445_1 (- 1.0)) (* motzkin_1445_3 (+ (* (- 1.0) lp_3_9_ULTIMATE.start_main_~i~4) 0.0))) 0.0) (= (+ (* motzkin_1445_0 (- 1.0)) motzkin_1445_1 (* motzkin_1445_2 (- 1.0)) (* motzkin_1445_4 (+ (* 1.0 lp_3_9_ULTIMATE.start_main_~i~4) 0.0)) (* motzkin_1445_5 (+ (* 1.0 lp_3_10_ULTIMATE.start_main_~i~4) 0.0)) (* motzkin_1445_6 (+ (* 1.0 lp_3_11_ULTIMATE.start_main_~i~4) 0.0))) 0.0) (<= (+ (* motzkin_1445_0 (- 1.0)) motzkin_1445_1 (* motzkin_1445_2 99999.0) (* motzkin_1445_3 (+ (* (- 1.0) lp_3_9c) 0.0)) (* motzkin_1445_4 (+ (* 1.0 lp_3_9c) 0.0)) (* motzkin_1445_5 (+ (* 1.0 lp_3_10c) 0.0)) (* motzkin_1445_6 (+ (* 1.0 lp_3_11c) 0.0))) 0.0) (or (< (+ (* motzkin_1445_0 (- 1.0)) motzkin_1445_1 (* motzkin_1445_2 99999.0) (* motzkin_1445_4 (+ (* 1.0 lp_3_9c) 0.0)) (* motzkin_1445_5 (+ (* 1.0 lp_3_10c) 0.0)) (* motzkin_1445_6 (+ (* 1.0 lp_3_11c) 0.0))) 0.0) (> motzkin_1445_3 0.0)) (>= motzkin_1446_0 0.0) (>= motzkin_1446_1 0.0) (>= motzkin_1446_2 0.0) (>= motzkin_1446_3 0.0) (>= motzkin_1446_4 0.0) (>= motzkin_1446_5 0.0) (>= motzkin_1446_6 0.0) (= (+ motzkin_1446_0 (* motzkin_1446_1 (- 1.0)) (* motzkin_1446_3 (+ (* (- 1.0) lp_3_10_ULTIMATE.start_main_~i~4) 0.0))) 0.0) (= (+ (* motzkin_1446_0 (- 1.0)) motzkin_1446_1 (* motzkin_1446_2 (- 1.0)) (* motzkin_1446_4 (+ (* 1.0 lp_3_9_ULTIMATE.start_main_~i~4) 0.0)) (* motzkin_1446_5 (+ (* 1.0 lp_3_10_ULTIMATE.start_main_~i~4) 0.0)) (* motzkin_1446_6 (+ (* 1.0 lp_3_11_ULTIMATE.start_main_~i~4) 0.0))) 0.0) (<= (+ (* motzkin_1446_0 (- 1.0)) motzkin_1446_1 (* motzkin_1446_2 99999.0) (* motzkin_1446_3 (+ (* (- 1.0) lp_3_10c) 0.0)) (* motzkin_1446_4 (+ (* 1.0 lp_3_9c) 0.0)) (* motzkin_1446_5 (+ (* 1.0 lp_3_10c) 0.0)) (* motzkin_1446_6 (+ (* 1.0 lp_3_11c) 0.0))) 0.0) (or (< (+ (* motzkin_1446_0 (- 1.0)) motzkin_1446_1 (* motzkin_1446_2 99999.0) (* motzkin_1446_4 (+ (* 1.0 lp_3_9c) 0.0)) (* motzkin_1446_5 (+ (* 1.0 lp_3_10c) 0.0)) (* motzkin_1446_6 (+ (* 1.0 lp_3_11c) 0.0))) 0.0) (> motzkin_1446_3 0.0)) (>= motzkin_1447_0 0.0) (>= motzkin_1447_1 0.0) (>= motzkin_1447_2 0.0) (>= motzkin_1447_3 0.0) (>= motzkin_1447_4 0.0) (>= motzkin_1447_5 0.0) (>= motzkin_1447_6 0.0) (= (+ motzkin_1447_0 (* motzkin_1447_1 (- 1.0)) (* motzkin_1447_3 (+ (* (- 1.0) lp_3_11_ULTIMATE.start_main_~i~4) 0.0))) 0.0) (= (+ (* motzkin_1447_0 (- 1.0)) motzkin_1447_1 (* motzkin_1447_2 (- 1.0)) (* motzkin_1447_4 (+ (* 1.0 lp_3_9_ULTIMATE.start_main_~i~4) 0.0)) (* motzkin_1447_5 (+ (* 1.0 lp_3_10_ULTIMATE.start_main_~i~4) 0.0)) (* motzkin_1447_6 (+ (* 1.0 lp_3_11_ULTIMATE.start_main_~i~4) 0.0))) 0.0) (<= (+ (* motzkin_1447_0 (- 1.0)) motzkin_1447_1 (* motzkin_1447_2 99999.0) (* motzkin_1447_3 (+ (* (- 1.0) lp_3_11c) 0.0)) (* motzkin_1447_4 (+ (* 1.0 lp_3_9c) 0.0)) (* motzkin_1447_5 (+ (* 1.0 lp_3_10c) 0.0)) (* motzkin_1447_6 (+ (* 1.0 lp_3_11c) 0.0))) 0.0) (or (< (+ (* motzkin_1447_0 (- 1.0)) motzkin_1447_1 (* motzkin_1447_2 99999.0) (* motzkin_1447_4 (+ (* 1.0 lp_3_9c) 0.0)) (* motzkin_1447_5 (+ (* 1.0 lp_3_10c) 0.0)) (* motzkin_1447_6 (+ (* 1.0 lp_3_11c) 0.0))) 0.0) (> motzkin_1447_3 0.0))))
(declare-fun motzkin_1448_0 () Real)
(declare-fun motzkin_1448_1 () Real)
(declare-fun motzkin_1448_2 () Real)
(declare-fun motzkin_1448_3 () Real)
(declare-fun motzkin_1448_4 () Real)
(declare-fun motzkin_1448_5 () Real)
(declare-fun motzkin_1448_6 () Real)
(declare-fun motzkin_1448_7 () Real)
(declare-fun motzkin_1448_8 () Real)
(declare-fun motzkin_1448_9 () Real)
(declare-fun motzkin_1448_10 () Real)
(declare-fun motzkin_1449_0 () Real)
(declare-fun motzkin_1449_1 () Real)
(declare-fun motzkin_1449_2 () Real)
(declare-fun motzkin_1449_3 () Real)
(declare-fun motzkin_1449_4 () Real)
(declare-fun motzkin_1449_5 () Real)
(declare-fun motzkin_1449_6 () Real)
(declare-fun motzkin_1449_7 () Real)
(declare-fun motzkin_1449_8 () Real)
(declare-fun motzkin_1449_9 () Real)
(declare-fun motzkin_1449_10 () Real)
(assert (and (>= motzkin_1448_0 0.0) (>= motzkin_1448_1 0.0) (>= motzkin_1448_2 0.0) (>= motzkin_1448_3 0.0) (>= motzkin_1448_4 0.0) (>= motzkin_1448_5 0.0) (>= motzkin_1448_6 0.0) (>= motzkin_1448_7 0.0) (>= motzkin_1448_8 0.0) (>= motzkin_1448_9 0.0) (>= motzkin_1448_10 0.0) (= (+ (* motzkin_1448_0 (- 1.0)) motzkin_1448_1 (* motzkin_1448_2 (- 1.0)) motzkin_1448_4) 0.0) (= (+ motzkin_1448_0 (* motzkin_1448_4 (- 1.0))) 0.0) (= (+ motzkin_1448_3 (* motzkin_1448_5 (- 1.0))) 0.0) (= (+ motzkin_1448_6 (* motzkin_1448_8 (+ (* 1.0 lp_3_9_ULTIMATE.start_main_~i~4) 0.0)) (* motzkin_1448_9 (+ (* 1.0 lp_3_10_ULTIMATE.start_main_~i~4) 0.0)) (* motzkin_1448_10 (+ (* 1.0 lp_3_11_ULTIMATE.start_main_~i~4) 0.0))) 0.0) (= (* motzkin_1448_7 (- 1.0)) 0.0) (= motzkin_1448_7 0.0) (<= (+ (* motzkin_1448_6 (- 100000.0)) (* motzkin_1448_7 (- 1.0)) (* motzkin_1448_8 (+ (* 1.0 lp_3_9c) 0.0)) (* motzkin_1448_9 (+ (* 1.0 lp_3_10c) 0.0)) (* motzkin_1448_10 (+ (* 1.0 lp_3_11c) 0.0))) 0.0) (or (< (+ (* motzkin_1448_6 (- 100000.0)) (* motzkin_1448_7 (- 1.0)) (* motzkin_1448_8 (+ (* 1.0 lp_3_9c) 0.0)) (* motzkin_1448_9 (+ (* 1.0 lp_3_10c) 0.0)) (* motzkin_1448_10 (+ (* 1.0 lp_3_11c) 0.0))) 0.0) (> 0.0 0.0)) (>= motzkin_1449_0 0.0) (>= motzkin_1449_1 0.0) (>= motzkin_1449_2 0.0) (>= motzkin_1449_3 0.0) (>= motzkin_1449_4 0.0) (>= motzkin_1449_5 0.0) (>= motzkin_1449_6 0.0) (>= motzkin_1449_7 0.0) (>= motzkin_1449_8 0.0) (>= motzkin_1449_9 0.0) (>= motzkin_1449_10 0.0) (= (+ (* motzkin_1449_0 (- 1.0)) motzkin_1449_1 (* motzkin_1449_2 (- 1.0)) motzkin_1449_5) 0.0) (= (+ motzkin_1449_0 (* motzkin_1449_5 (- 1.0))) 0.0) (= motzkin_1449_3 0.0) (= (* motzkin_1449_3 (- 1.0)) 0.0) (= (+ motzkin_1449_4 (* motzkin_1449_6 (- 1.0))) 0.0) (= (+ motzkin_1449_7 (* motzkin_1449_8 (+ (* 1.0 lp_3_9_ULTIMATE.start_main_~i~4) 0.0)) (* motzkin_1449_9 (+ (* 1.0 lp_3_10_ULTIMATE.start_main_~i~4) 0.0)) (* motzkin_1449_10 (+ (* 1.0 lp_3_11_ULTIMATE.start_main_~i~4) 0.0))) 0.0) (<= (+ (* motzkin_1449_3 (- 1.0)) (* motzkin_1449_7 (- 100000.0)) (* motzkin_1449_8 (+ (* 1.0 lp_3_9c) 0.0)) (* motzkin_1449_9 (+ (* 1.0 lp_3_10c) 0.0)) (* motzkin_1449_10 (+ (* 1.0 lp_3_11c) 0.0))) 0.0) (or (< (+ (* motzkin_1449_3 (- 1.0)) (* motzkin_1449_7 (- 100000.0)) (* motzkin_1449_8 (+ (* 1.0 lp_3_9c) 0.0)) (* motzkin_1449_9 (+ (* 1.0 lp_3_10c) 0.0)) (* motzkin_1449_10 (+ (* 1.0 lp_3_11c) 0.0))) 0.0) (> 0.0 0.0))))
(check-sat)
(exit)
